Version identifier: 20.1.0.0 | 2020-11-10 | 9bedb6d68
Tried aggregator 2 times.
MIP Presolve eliminated 1360 rows and 813 columns.
MIP Presolve modified 2582 coefficients.
Aggregator did 143 substitutions.
Reduced MIP has 1053 rows, 851 columns, and 3343 nonzeros.
Reduced MIP has 218 binaries, 633 generals, 0 SOSs, and 0 indicators.
Presolve time = 0.01 sec. (5.60 ticks)
Found incumbent of value 37.000000 after 0.02 sec. (9.53 ticks)
Probing fixed 30 vars, tightened 227 bounds.
Probing time = 0.00 sec. (0.98 ticks)
Tried aggregator 1 time.
Detecting symmetries...
MIP Presolve eliminated 450 rows and 30 columns.
MIP Presolve modified 45 coefficients.
Reduced MIP has 603 rows, 821 columns, and 1963 nonzeros.
Reduced MIP has 338 binaries, 483 generals, 0 SOSs, and 0 indicators.
Presolve time = 0.00 sec. (2.29 ticks)
Probing time = 0.00 sec. (0.20 ticks)
Clique table members: 61.
MIP emphasis: balance optimality and feasibility.
MIP search method: dynamic search.
Parallel mode: deterministic, using up to 24 threads.
Root relaxation solution time = 0.00 sec. (1.57 ticks)

        Nodes                                         Cuts/
   Node  Left     Objective  IInf  Best Integer    Best Bound    ItCnt     Gap

*     0+    0                           37.0000        0.0000           100.00%
      0     0        0.0000    46       37.0000        0.0000      158  100.00%
      0     0        0.5000    59       37.0000     Cuts: 159      326   98.65%
*     0+    0                            8.0000        0.5000            93.75%
      0     0        1.0756   139        8.0000      Cuts: 56      512   86.55%
      0     0        1.1222   140        8.0000      Cuts: 35      537   85.97%
      0     0        1.1333   117        8.0000      Cuts: 30      565   85.83%
      0     0        1.1481    94        8.0000      Cuts: 32      587   85.65%
      0     0        1.3333   111        8.0000      Cuts: 24      609   83.33%
      0     0        1.5816   148        8.0000      Cuts: 23      710   80.23%
      0     0        1.6000   122        8.0000      Cuts: 64      757   80.00%
      0     0        1.6000   113        8.0000      Cuts: 49      791   80.00%
      0     0        1.6000   121        8.0000      Cuts: 53      824   80.00%
      0     0        1.6000   102        8.0000      Cuts: 20      842   80.00%
      0     0        1.6000   104        8.0000      Cuts: 36      872   80.00%
*     0+    0                            5.0000        1.6000            68.00%
      0     0        cutoff              5.0000        5.0000      872    0.00%
Elapsed time = 0.26 sec. (90.87 ticks, tree = 0.01 MB, solutions = 3)

Implied bound cuts applied:  38
Flow cuts applied:  1
Mixed integer rounding cuts applied:  8
Zero-half cuts applied:  71
Lift and project cuts applied:  1
Gomory fractional cuts applied:  28

Root node processing (before b&c):
  Real time             =    0.26 sec. (90.96 ticks)
Parallel b&c, 24 threads:
  Real time             =    0.00 sec. (0.00 ticks)
  Sync time (average)   =    0.00 sec.
  Wait time (average)   =    0.00 sec.
                          ------------
Total (root+branch&cut) =    0.26 sec. (90.96 ticks)

Solution status = Optimal
Solution LB = 5
Solution UB = 5
Runtime = 0.273911 seconds
	Command being timed: "/home/min/git_repos/CS598MEBProject/CNT-ILP/build/cnt -s 2 ./output/k6_n30/simC_c1_k6_n30_u1_s2_del04.input-left.cnp"
	User time (seconds): 2.96
	System time (seconds): 0.05
	Percent of CPU this job got: 1033%
	Elapsed (wall clock) time (h:mm:ss or m:ss): 0:00.29
	Average shared text size (kbytes): 0
	Average unshared data size (kbytes): 0
	Average stack size (kbytes): 0
	Average total size (kbytes): 0
	Maximum resident set size (kbytes): 78132
	Average resident set size (kbytes): 0
	Major (requiring I/O) page faults: 0
	Minor (reclaiming a frame) page faults: 17028
	Voluntary context switches: 3391
	Involuntary context switches: 338
	Swaps: 0
	File system inputs: 0
	File system outputs: 16
	Socket messages sent: 0
	Socket messages received: 0
	Signals delivered: 0
	Page size (bytes): 4096
	Exit status: 0
